40 

223 230 54 214 118 147 16 104 56 154 106 234 34 195 74 129 159 37 10 185 243 87 57 87 26 201  0 128 194 10  1 28 59 130 160 91 180 16 1  72

14   38  3   1  13   4 15   2  5  49  40  24 18  33  7  10  12 42 41  11   6 45 32 20  9  16 39  23  39 21 46  8 30  26  35 22  34 19 31 17

600
